(set-logic QF_S)
(declare-fun T_2 () Bool)
(declare-fun T_3 () Bool)
(declare-fun T_1 () Int)
(declare-fun var_0xINPUT_272150 () String)
(assert T_3)
(assert (= T_3 (not T_2)))
(assert (= T_2 (= T_1 0)))
(assert (= T_1 (str.len var_0xINPUT_272150))) ; len 0
(check-sat)
